data/lp_files/q3/123_9.lp
\ Model foo
\ LP format - for model browsing. Use MPS format to capture full model detail.
Minimize
  z
Subject To
 allocateEach[1]: x[1,1] + x[2,1] + x[3,1] + x[4,1] + x[5,1] + x[6,1]
   + x[7,1] = 1
 allocateEach[2]: x[1,2] + x[2,2] + x[3,2] + x[4,2] + x[5,2] + x[6,2]
   + x[7,2] = 1
 allocateEach[3]: x[1,3] + x[2,3] + x[3,3] + x[4,3] + x[5,3] + x[6,3]
   + x[7,3] = 1
 allocateAllCash: cashProportion[1] + cashProportion[2] + cashProportion[3]
   + cashProportion[4] + cashProportion[5] + cashProportion[6]
   + cashProportion[7] = 1
 findWorstP[1,2]: z + 0.4108969881250771 cashProportion[1]
   - 0.4108969881250771 cashProportion[2] + 0.0458150141759461 x[1,1]
   + 0.2440317212474832 x[1,2] + 0.2992562764514936 x[1,3]
   - 0.0458150141759461 x[2,1] - 0.2440317212474832 x[2,2]
   - 0.2992562764514936 x[2,3] >= 0
 findWorstP[1,3]: z + 0.4108969881250771 cashProportion[1]
   - 0.4108969881250771 cashProportion[3] + 0.0458150141759461 x[1,1]
   + 0.2440317212474832 x[1,2] + 0.2992562764514936 x[1,3]
   - 0.0458150141759461 x[3,1] - 0.2440317212474832 x[3,2]
   - 0.2992562764514936 x[3,3] >= 0
 findWorstP[1,4]: z + 0.4108969881250771 cashProportion[1]
   - 0.4108969881250771 cashProportion[4] + 0.0458150141759461 x[1,1]
   + 0.2440317212474832 x[1,2] + 0.2992562764514936 x[1,3]
   - 0.0458150141759461 x[4,1] - 0.2440317212474832 x[4,2]
   - 0.2992562764514936 x[4,3] >= 0
 findWorstP[1,5]: z + 0.4108969881250771 cashProportion[1]
   - 0.4108969881250771 cashProportion[5] + 0.0458150141759461 x[1,1]
   + 0.2440317212474832 x[1,2] + 0.2992562764514936 x[1,3]
   - 0.0458150141759461 x[5,1] - 0.2440317212474832 x[5,2]
   - 0.2992562764514936 x[5,3] >= 0
 findWorstP[1,6]: z + 0.4108969881250771 cashProportion[1]
   - 0.4108969881250771 cashProportion[6] + 0.0458150141759461 x[1,1]
   + 0.2440317212474832 x[1,2] + 0.2992562764514936 x[1,3]
   - 0.0458150141759461 x[6,1] - 0.2440317212474832 x[6,2]
   - 0.2992562764514936 x[6,3] >= 0
 findWorstP[1,7]: z + 0.4108969881250771 cashProportion[1]
   - 0.4108969881250771 cashProportion[7] + 0.0458150141759461 x[1,1]
   + 0.2440317212474832 x[1,2] + 0.2992562764514936 x[1,3]
   - 0.0458150141759461 x[7,1] - 0.2440317212474832 x[7,2]
   - 0.2992562764514936 x[7,3] >= 0
 findWorstP[2,1]: z - 0.4615952732644018 cashProportion[1]
   + 0.4615952732644018 cashProportion[2] - 0.1386632200886263 x[1,1]
   - 0.1271694977843427 x[1,2] - 0.2725720088626292 x[1,3]
   + 0.1386632200886263 x[2,1] + 0.1271694977843427 x[2,2]
   + 0.2725720088626292 x[2,3] >= 0
 findWorstP[2,3]: z + 0.4615952732644018 cashProportion[2]
   - 0.4615952732644018 cashProportion[3] + 0.1386632200886263 x[2,1]
   + 0.1271694977843427 x[2,2] + 0.2725720088626292 x[2,3]
   - 0.1386632200886263 x[3,1] - 0.1271694977843427 x[3,2]
   - 0.2725720088626292 x[3,3] >= 0
 findWorstP[2,4]: z + 0.4615952732644018 cashProportion[2]
   - 0.4615952732644018 cashProportion[4] + 0.1386632200886263 x[2,1]
   + 0.1271694977843427 x[2,2] + 0.2725720088626292 x[2,3]
   - 0.1386632200886263 x[4,1] - 0.1271694977843427 x[4,2]
   - 0.2725720088626292 x[4,3] >= 0
 findWorstP[2,5]: z + 0.4615952732644018 cashProportion[2]
   - 0.4615952732644018 cashProportion[5] + 0.1386632200886263 x[2,1]
   + 0.1271694977843427 x[2,2] + 0.2725720088626292 x[2,3]
   - 0.1386632200886263 x[5,1] - 0.1271694977843427 x[5,2]
   - 0.2725720088626292 x[5,3] >= 0
 findWorstP[2,6]: z + 0.4615952732644018 cashProportion[2]
   - 0.4615952732644018 cashProportion[6] + 0.1386632200886263 x[2,1]
   + 0.1271694977843427 x[2,2] + 0.2725720088626292 x[2,3]
   - 0.1386632200886263 x[6,1] - 0.1271694977843427 x[6,2]
   - 0.2725720088626292 x[6,3] >= 0
 findWorstP[2,7]: z + 0.4615952732644018 cashProportion[2]
   - 0.4615952732644018 cashProportion[7] + 0.1386632200886263 x[2,1]
   + 0.1271694977843427 x[2,2] + 0.2725720088626292 x[2,3]
   - 0.1386632200886263 x[7,1] - 0.1271694977843427 x[7,2]
   - 0.2725720088626292 x[7,3] >= 0
 findWorstP[3,1]: z - 0.3930354124906655 cashProportion[1]
   + 0.3930354124906655 cashProportion[3] - 0.3600990449239476 x[1,1]
   - 0.1469166371890107 x[1,2] - 0.0999489053963762 x[1,3]
   + 0.3600990449239476 x[3,1] + 0.1469166371890107 x[3,2]
   + 0.0999489053963762 x[3,3] >= 0
 findWorstP[3,2]: z - 0.3930354124906655 cashProportion[2]
   + 0.3930354124906655 cashProportion[3] - 0.3600990449239476 x[2,1]
   - 0.1469166371890107 x[2,2] - 0.0999489053963762 x[2,3]
   + 0.3600990449239476 x[3,1] + 0.1469166371890107 x[3,2]
   + 0.0999489053963762 x[3,3] >= 0
 findWorstP[3,4]: z + 0.3930354124906655 cashProportion[3]
   - 0.3930354124906655 cashProportion[4] + 0.3600990449239476 x[3,1]
   + 0.1469166371890107 x[3,2] + 0.0999489053963762 x[3,3]
   - 0.3600990449239476 x[4,1] - 0.1469166371890107 x[4,2]
   - 0.0999489053963762 x[4,3] >= 0
 findWorstP[3,5]: z + 0.3930354124906655 cashProportion[3]
   - 0.3930354124906655 cashProportion[5] + 0.3600990449239476 x[3,1]
   + 0.1469166371890107 x[3,2] + 0.0999489053963762 x[3,3]
   - 0.3600990449239476 x[5,1] - 0.1469166371890107 x[5,2]
   - 0.0999489053963762 x[5,3] >= 0
 findWorstP[3,6]: z + 0.3930354124906655 cashProportion[3]
   - 0.3930354124906655 cashProportion[6] + 0.3600990449239476 x[3,1]
   + 0.1469166371890107 x[3,2] + 0.0999489053963762 x[3,3]
   - 0.3600990449239476 x[6,1] - 0.1469166371890107 x[6,2]
   - 0.0999489053963762 x[6,3] >= 0
 findWorstP[3,7]: z + 0.3930354124906655 cashProportion[3]
   - 0.3930354124906655 cashProportion[7] + 0.3600990449239476 x[3,1]
   + 0.1469166371890107 x[3,2] + 0.0999489053963762 x[3,3]
   - 0.3600990449239476 x[7,1] - 0.1469166371890107 x[7,2]
   - 0.0999489053963762 x[7,3] >= 0
 findWorstP[4,1]: z - 0.5414771496642842 cashProportion[1]
   + 0.5414771496642842 cashProportion[4] - 0.1403508771929824 x[1,1]
   - 0.128546675330301 x[1,2] - 0.1896252978124323 x[1,3]
   + 0.1403508771929824 x[4,1] + 0.128546675330301 x[4,2]
   + 0.1896252978124323 x[4,3] >= 0
 findWorstP[4,2]: z - 0.5414771496642842 cashProportion[2]
   + 0.5414771496642842 cashProportion[4] - 0.1403508771929824 x[2,1]
   - 0.128546675330301 x[2,2] - 0.1896252978124323 x[2,3]
   + 0.1403508771929824 x[4,1] + 0.128546675330301 x[4,2]
   + 0.1896252978124323 x[4,3] >= 0
 findWorstP[4,3]: z - 0.5414771496642842 cashProportion[3]
   + 0.5414771496642842 cashProportion[4] - 0.1403508771929824 x[3,1]
   - 0.128546675330301 x[3,2] - 0.1896252978124323 x[3,3]
   + 0.1403508771929824 x[4,1] + 0.128546675330301 x[4,2]
   + 0.1896252978124323 x[4,3] >= 0
 findWorstP[4,5]: z + 0.5414771496642842 cashProportion[4]
   - 0.5414771496642842 cashProportion[5] + 0.1403508771929824 x[4,1]
   + 0.128546675330301 x[4,2] + 0.1896252978124323 x[4,3]
   - 0.1403508771929824 x[5,1] - 0.128546675330301 x[5,2]
   - 0.1896252978124323 x[5,3] >= 0
 findWorstP[4,6]: z + 0.5414771496642842 cashProportion[4]
   - 0.5414771496642842 cashProportion[6] + 0.1403508771929824 x[4,1]
   + 0.128546675330301 x[4,2] + 0.1896252978124323 x[4,3]
   - 0.1403508771929824 x[6,1] - 0.128546675330301 x[6,2]
   - 0.1896252978124323 x[6,3] >= 0
 findWorstP[4,7]: z + 0.5414771496642842 cashProportion[4]
   - 0.5414771496642842 cashProportion[7] + 0.1403508771929824 x[4,1]
   + 0.128546675330301 x[4,2] + 0.1896252978124323 x[4,3]
   - 0.1403508771929824 x[7,1] - 0.128546675330301 x[7,2]
   - 0.1896252978124323 x[7,3] >= 0
 findWorstP[5,1]: z - 0.4963025460320613 cashProportion[1]
   + 0.4963025460320613 cashProportion[5] - 0.0103230929574669 x[1,1]
   - 0.0111668072857214 x[1,2] - 0.4822075537247506 x[1,3]
   + 0.0103230929574669 x[5,1] + 0.0111668072857214 x[5,2]
   + 0.4822075537247506 x[5,3] >= 0
 findWorstP[5,2]: z - 0.4963025460320613 cashProportion[2]
   + 0.4963025460320613 cashProportion[5] - 0.0103230929574669 x[2,1]
   - 0.0111668072857214 x[2,2] - 0.4822075537247506 x[2,3]
   + 0.0103230929574669 x[5,1] + 0.0111668072857214 x[5,2]
   + 0.4822075537247506 x[5,3] >= 0
 findWorstP[5,3]: z - 0.4963025460320613 cashProportion[3]
   + 0.4963025460320613 cashProportion[5] - 0.0103230929574669 x[3,1]
   - 0.0111668072857214 x[3,2] - 0.4822075537247506 x[3,3]
   + 0.0103230929574669 x[5,1] + 0.0111668072857214 x[5,2]
   + 0.4822075537247506 x[5,3] >= 0
 findWorstP[5,4]: z - 0.4963025460320613 cashProportion[4]
   + 0.4963025460320613 cashProportion[5] - 0.0103230929574669 x[4,1]
   - 0.0111668072857214 x[4,2] - 0.4822075537247506 x[4,3]
   + 0.0103230929574669 x[5,1] + 0.0111668072857214 x[5,2]
   + 0.4822075537247506 x[5,3] >= 0
 findWorstP[5,6]: z + 0.4963025460320613 cashProportion[5]
   - 0.4963025460320613 cashProportion[6] + 0.0103230929574669 x[5,1]
   + 0.0111668072857214 x[5,2] + 0.4822075537247506 x[5,3]
   - 0.0103230929574669 x[6,1] - 0.0111668072857214 x[6,2]
   - 0.4822075537247506 x[6,3] >= 0
 findWorstP[5,7]: z + 0.4963025460320613 cashProportion[5]
   - 0.4963025460320613 cashProportion[7] + 0.0103230929574669 x[5,1]
   + 0.0111668072857214 x[5,2] + 0.4822075537247506 x[5,3]
   - 0.0103230929574669 x[7,1] - 0.0111668072857214 x[7,2]
   - 0.4822075537247506 x[7,3] >= 0
 findWorstP[6,1]: z - 0.3679717397703857 cashProportion[1]
   + 0.3679717397703857 cashProportion[6] - 0.1305195760965558 x[1,1]
   - 0.2524286134824845 x[1,2] - 0.249080070650574 x[1,3]
   + 0.1305195760965558 x[6,1] + 0.2524286134824845 x[6,2]
   + 0.249080070650574 x[6,3] >= 0
 findWorstP[6,2]: z - 0.3679717397703857 cashProportion[2]
   + 0.3679717397703857 cashProportion[6] - 0.1305195760965558 x[2,1]
   - 0.2524286134824845 x[2,2] - 0.249080070650574 x[2,3]
   + 0.1305195760965558 x[6,1] + 0.2524286134824845 x[6,2]
   + 0.249080070650574 x[6,3] >= 0
 findWorstP[6,3]: z - 0.3679717397703857 cashProportion[3]
   + 0.3679717397703857 cashProportion[6] - 0.1305195760965558 x[3,1]
   - 0.2524286134824845 x[3,2] - 0.249080070650574 x[3,3]
   + 0.1305195760965558 x[6,1] + 0.2524286134824845 x[6,2]
   + 0.249080070650574 x[6,3] >= 0
 findWorstP[6,4]: z - 0.3679717397703857 cashProportion[4]
   + 0.3679717397703857 cashProportion[6] - 0.1305195760965558 x[4,1]
   - 0.2524286134824845 x[4,2] - 0.249080070650574 x[4,3]
   + 0.1305195760965558 x[6,1] + 0.2524286134824845 x[6,2]
   + 0.249080070650574 x[6,3] >= 0
 findWorstP[6,5]: z - 0.3679717397703857 cashProportion[5]
   + 0.3679717397703857 cashProportion[6] - 0.1305195760965558 x[5,1]
   - 0.2524286134824845 x[5,2] - 0.249080070650574 x[5,3]
   + 0.1305195760965558 x[6,1] + 0.2524286134824845 x[6,2]
   + 0.249080070650574 x[6,3] >= 0
 findWorstP[6,7]: z + 0.3679717397703857 cashProportion[6]
   - 0.3679717397703857 cashProportion[7] + 0.1305195760965558 x[6,1]
   + 0.2524286134824845 x[6,2] + 0.249080070650574 x[6,3]
   - 0.1305195760965558 x[7,1] - 0.2524286134824845 x[7,2]
   - 0.249080070650574 x[7,3] >= 0
 findWorstP[7,1]: z - 0.3674444240308654 cashProportion[1]
   + 0.3674444240308654 cashProportion[7] - 0.1709718905015616 x[1,1]
   - 0.0953885724784126 x[1,2] - 0.3661951129891604 x[1,3]
   + 0.1709718905015616 x[7,1] + 0.0953885724784126 x[7,2]
   + 0.3661951129891604 x[7,3] >= 0
 findWorstP[7,2]: z - 0.3674444240308654 cashProportion[2]
   + 0.3674444240308654 cashProportion[7] - 0.1709718905015616 x[2,1]
   - 0.0953885724784126 x[2,2] - 0.3661951129891604 x[2,3]
   + 0.1709718905015616 x[7,1] + 0.0953885724784126 x[7,2]
   + 0.3661951129891604 x[7,3] >= 0
 findWorstP[7,3]: z - 0.3674444240308654 cashProportion[3]
   + 0.3674444240308654 cashProportion[7] - 0.1709718905015616 x[3,1]
   - 0.0953885724784126 x[3,2] - 0.3661951129891604 x[3,3]
   + 0.1709718905015616 x[7,1] + 0.0953885724784126 x[7,2]
   + 0.3661951129891604 x[7,3] >= 0
 findWorstP[7,4]: z - 0.3674444240308654 cashProportion[4]
   + 0.3674444240308654 cashProportion[7] - 0.1709718905015616 x[4,1]
   - 0.0953885724784126 x[4,2] - 0.3661951129891604 x[4,3]
   + 0.1709718905015616 x[7,1] + 0.0953885724784126 x[7,2]
   + 0.3661951129891604 x[7,3] >= 0
 findWorstP[7,5]: z - 0.3674444240308654 cashProportion[5]
   + 0.3674444240308654 cashProportion[7] - 0.1709718905015616 x[5,1]
   - 0.0953885724784126 x[5,2] - 0.3661951129891604 x[5,3]
   + 0.1709718905015616 x[7,1] + 0.0953885724784126 x[7,2]
   + 0.3661951129891604 x[7,3] >= 0
 findWorstP[7,6]: z - 0.3674444240308654 cashProportion[6]
   + 0.3674444240308654 cashProportion[7] - 0.1709718905015616 x[6,1]
   - 0.0953885724784126 x[6,2] - 0.3661951129891604 x[6,3]
   + 0.1709718905015616 x[7,1] + 0.0953885724784126 x[7,2]
   + 0.3661951129891604 x[7,3] >= 0
Bounds
 z <= 1
 -infinity <= cashProportion[1] <= 1
 -infinity <= cashProportion[2] <= 1
 -infinity <= cashProportion[3] <= 1
 -infinity <= cashProportion[4] <= 1
 -infinity <= cashProportion[5] <= 1
 -infinity <= cashProportion[6] <= 1
 -infinity <= cashProportion[7] <= 1
Binaries
 x[1,1] x[1,2] x[1,3] x[2,1] x[2,2] x[2,3] x[3,1] x[3,2] x[3,3] x[4,1]
 x[4,2] x[4,3] x[5,1] x[5,2] x[5,3] x[6,1] x[6,2] x[6,3] x[7,1] x[7,2]
 x[7,3]
End
