data/mps_files/q3/123_9.mps
NAME foo
ROWS
 N  OBJ
 E  allocateEach[1]
 E  allocateEach[2]
 E  allocateEach[3]
 E  allocateAllCash
 G  findWorstP[1,2]
 G  findWorstP[1,3]
 G  findWorstP[1,4]
 G  findWorstP[1,5]
 G  findWorstP[1,6]
 G  findWorstP[1,7]
 G  findWorstP[2,1]
 G  findWorstP[2,3]
 G  findWorstP[2,4]
 G  findWorstP[2,5]
 G  findWorstP[2,6]
 G  findWorstP[2,7]
 G  findWorstP[3,1]
 G  findWorstP[3,2]
 G  findWorstP[3,4]
 G  findWorstP[3,5]
 G  findWorstP[3,6]
 G  findWorstP[3,7]
 G  findWorstP[4,1]
 G  findWorstP[4,2]
 G  findWorstP[4,3]
 G  findWorstP[4,5]
 G  findWorstP[4,6]
 G  findWorstP[4,7]
 G  findWorstP[5,1]
 G  findWorstP[5,2]
 G  findWorstP[5,3]
 G  findWorstP[5,4]
 G  findWorstP[5,6]
 G  findWorstP[5,7]
 G  findWorstP[6,1]
 G  findWorstP[6,2]
 G  findWorstP[6,3]
 G  findWorstP[6,4]
 G  findWorstP[6,5]
 G  findWorstP[6,7]
 G  findWorstP[7,1]
 G  findWorstP[7,2]
 G  findWorstP[7,3]
 G  findWorstP[7,4]
 G  findWorstP[7,5]
 G  findWorstP[7,6]
COLUMNS
    z         OBJ       1
    z         findWorstP[1,2]  1
    z         findWorstP[1,3]  1
    z         findWorstP[1,4]  1
    z         findWorstP[1,5]  1
    z         findWorstP[1,6]  1
    z         findWorstP[1,7]  1
    z         findWorstP[2,1]  1
    z         findWorstP[2,3]  1
    z         findWorstP[2,4]  1
    z         findWorstP[2,5]  1
    z         findWorstP[2,6]  1
    z         findWorstP[2,7]  1
    z         findWorstP[3,1]  1
    z         findWorstP[3,2]  1
    z         findWorstP[3,4]  1
    z         findWorstP[3,5]  1
    z         findWorstP[3,6]  1
    z         findWorstP[3,7]  1
    z         findWorstP[4,1]  1
    z         findWorstP[4,2]  1
    z         findWorstP[4,3]  1
    z         findWorstP[4,5]  1
    z         findWorstP[4,6]  1
    z         findWorstP[4,7]  1
    z         findWorstP[5,1]  1
    z         findWorstP[5,2]  1
    z         findWorstP[5,3]  1
    z         findWorstP[5,4]  1
    z         findWorstP[5,6]  1
    z         findWorstP[5,7]  1
    z         findWorstP[6,1]  1
    z         findWorstP[6,2]  1
    z         findWorstP[6,3]  1
    z         findWorstP[6,4]  1
    z         findWorstP[6,5]  1
    z         findWorstP[6,7]  1
    z         findWorstP[7,1]  1
    z         findWorstP[7,2]  1
    z         findWorstP[7,3]  1
    z         findWorstP[7,4]  1
    z         findWorstP[7,5]  1
    z         findWorstP[7,6]  1
    cashProportion[1]  allocateAllCash  1
    cashProportion[1]  findWorstP[1,2]  4.1089698812507713e-01
    cashProportion[1]  findWorstP[1,3]  4.1089698812507713e-01
    cashProportion[1]  findWorstP[1,4]  4.1089698812507713e-01
    cashProportion[1]  findWorstP[1,5]  4.1089698812507713e-01
    cashProportion[1]  findWorstP[1,6]  4.1089698812507713e-01
    cashProportion[1]  findWorstP[1,7]  4.1089698812507713e-01
    cashProportion[1]  findWorstP[2,1]  -4.6159527326440181e-01
    cashProportion[1]  findWorstP[3,1]  -3.9303541249066548e-01
    cashProportion[1]  findWorstP[4,1]  -5.4147714966428417e-01
    cashProportion[1]  findWorstP[5,1]  -4.9630254603206125e-01
    cashProportion[1]  findWorstP[6,1]  -3.6797173977038566e-01
    cashProportion[1]  findWorstP[7,1]  -3.6744442403086536e-01
    cashProportion[2]  allocateAllCash  1
    cashProportion[2]  findWorstP[1,2]  -4.1089698812507713e-01
    cashProportion[2]  findWorstP[2,1]  4.6159527326440181e-01
    cashProportion[2]  findWorstP[2,3]  4.6159527326440181e-01
    cashProportion[2]  findWorstP[2,4]  4.6159527326440181e-01
    cashProportion[2]  findWorstP[2,5]  4.6159527326440181e-01
    cashProportion[2]  findWorstP[2,6]  4.6159527326440181e-01
    cashProportion[2]  findWorstP[2,7]  4.6159527326440181e-01
    cashProportion[2]  findWorstP[3,2]  -3.9303541249066548e-01
    cashProportion[2]  findWorstP[4,2]  -5.4147714966428417e-01
    cashProportion[2]  findWorstP[5,2]  -4.9630254603206125e-01
    cashProportion[2]  findWorstP[6,2]  -3.6797173977038566e-01
    cashProportion[2]  findWorstP[7,2]  -3.6744442403086536e-01
    cashProportion[3]  allocateAllCash  1
    cashProportion[3]  findWorstP[1,3]  -4.1089698812507713e-01
    cashProportion[3]  findWorstP[2,3]  -4.6159527326440181e-01
    cashProportion[3]  findWorstP[3,1]  3.9303541249066548e-01
    cashProportion[3]  findWorstP[3,2]  3.9303541249066548e-01
    cashProportion[3]  findWorstP[3,4]  3.9303541249066548e-01
    cashProportion[3]  findWorstP[3,5]  3.9303541249066548e-01
    cashProportion[3]  findWorstP[3,6]  3.9303541249066548e-01
    cashProportion[3]  findWorstP[3,7]  3.9303541249066548e-01
    cashProportion[3]  findWorstP[4,3]  -5.4147714966428417e-01
    cashProportion[3]  findWorstP[5,3]  -4.9630254603206125e-01
    cashProportion[3]  findWorstP[6,3]  -3.6797173977038566e-01
    cashProportion[3]  findWorstP[7,3]  -3.6744442403086536e-01
    cashProportion[4]  allocateAllCash  1
    cashProportion[4]  findWorstP[1,4]  -4.1089698812507713e-01
    cashProportion[4]  findWorstP[2,4]  -4.6159527326440181e-01
    cashProportion[4]  findWorstP[3,4]  -3.9303541249066548e-01
    cashProportion[4]  findWorstP[4,1]  5.4147714966428417e-01
    cashProportion[4]  findWorstP[4,2]  5.4147714966428417e-01
    cashProportion[4]  findWorstP[4,3]  5.4147714966428417e-01
    cashProportion[4]  findWorstP[4,5]  5.4147714966428417e-01
    cashProportion[4]  findWorstP[4,6]  5.4147714966428417e-01
    cashProportion[4]  findWorstP[4,7]  5.4147714966428417e-01
    cashProportion[4]  findWorstP[5,4]  -4.9630254603206125e-01
    cashProportion[4]  findWorstP[6,4]  -3.6797173977038566e-01
    cashProportion[4]  findWorstP[7,4]  -3.6744442403086536e-01
    cashProportion[5]  allocateAllCash  1
    cashProportion[5]  findWorstP[1,5]  -4.1089698812507713e-01
    cashProportion[5]  findWorstP[2,5]  -4.6159527326440181e-01
    cashProportion[5]  findWorstP[3,5]  -3.9303541249066548e-01
    cashProportion[5]  findWorstP[4,5]  -5.4147714966428417e-01
    cashProportion[5]  findWorstP[5,1]  4.9630254603206125e-01
    cashProportion[5]  findWorstP[5,2]  4.9630254603206125e-01
    cashProportion[5]  findWorstP[5,3]  4.9630254603206125e-01
    cashProportion[5]  findWorstP[5,4]  4.9630254603206125e-01
    cashProportion[5]  findWorstP[5,6]  4.9630254603206125e-01
    cashProportion[5]  findWorstP[5,7]  4.9630254603206125e-01
    cashProportion[5]  findWorstP[6,5]  -3.6797173977038566e-01
    cashProportion[5]  findWorstP[7,5]  -3.6744442403086536e-01
    cashProportion[6]  allocateAllCash  1
    cashProportion[6]  findWorstP[1,6]  -4.1089698812507713e-01
    cashProportion[6]  findWorstP[2,6]  -4.6159527326440181e-01
    cashProportion[6]  findWorstP[3,6]  -3.9303541249066548e-01
    cashProportion[6]  findWorstP[4,6]  -5.4147714966428417e-01
    cashProportion[6]  findWorstP[5,6]  -4.9630254603206125e-01
    cashProportion[6]  findWorstP[6,1]  3.6797173977038566e-01
    cashProportion[6]  findWorstP[6,2]  3.6797173977038566e-01
    cashProportion[6]  findWorstP[6,3]  3.6797173977038566e-01
    cashProportion[6]  findWorstP[6,4]  3.6797173977038566e-01
    cashProportion[6]  findWorstP[6,5]  3.6797173977038566e-01
    cashProportion[6]  findWorstP[6,7]  3.6797173977038566e-01
    cashProportion[6]  findWorstP[7,6]  -3.6744442403086536e-01
    cashProportion[7]  allocateAllCash  1
    cashProportion[7]  findWorstP[1,7]  -4.1089698812507713e-01
    cashProportion[7]  findWorstP[2,7]  -4.6159527326440181e-01
    cashProportion[7]  findWorstP[3,7]  -3.9303541249066548e-01
    cashProportion[7]  findWorstP[4,7]  -5.4147714966428417e-01
    cashProportion[7]  findWorstP[5,7]  -4.9630254603206125e-01
    cashProportion[7]  findWorstP[6,7]  -3.6797173977038566e-01
    cashProportion[7]  findWorstP[7,1]  3.6744442403086536e-01
    cashProportion[7]  findWorstP[7,2]  3.6744442403086536e-01
    cashProportion[7]  findWorstP[7,3]  3.6744442403086536e-01
    cashProportion[7]  findWorstP[7,4]  3.6744442403086536e-01
    cashProportion[7]  findWorstP[7,5]  3.6744442403086536e-01
    cashProportion[7]  findWorstP[7,6]  3.6744442403086536e-01
    MARKER    'MARKER'                 'INTORG'
    x[1,1]    allocateEach[1]  1
    x[1,1]    findWorstP[1,2]  4.5815014175946092e-02
    x[1,1]    findWorstP[1,3]  4.5815014175946092e-02
    x[1,1]    findWorstP[1,4]  4.5815014175946092e-02
    x[1,1]    findWorstP[1,5]  4.5815014175946092e-02
    x[1,1]    findWorstP[1,6]  4.5815014175946092e-02
    x[1,1]    findWorstP[1,7]  4.5815014175946092e-02
    x[1,1]    findWorstP[2,1]  -1.3866322008862628e-01
    x[1,1]    findWorstP[3,1]  -3.6009904492394762e-01
    x[1,1]    findWorstP[4,1]  -1.4035087719298242e-01
    x[1,1]    findWorstP[5,1]  -1.0323092957466872e-02
    x[1,1]    findWorstP[6,1]  -1.3051957609655579e-01
    x[1,1]    findWorstP[7,1]  -1.7097189050156161e-01
    x[1,2]    allocateEach[2]  1
    x[1,2]    findWorstP[1,2]  2.4403172124748324e-01
    x[1,2]    findWorstP[1,3]  2.4403172124748324e-01
    x[1,2]    findWorstP[1,4]  2.4403172124748324e-01
    x[1,2]    findWorstP[1,5]  2.4403172124748324e-01
    x[1,2]    findWorstP[1,6]  2.4403172124748324e-01
    x[1,2]    findWorstP[1,7]  2.4403172124748324e-01
    x[1,2]    findWorstP[2,1]  -1.2716949778434267e-01
    x[1,2]    findWorstP[3,1]  -1.4691663718901071e-01
    x[1,2]    findWorstP[4,1]  -1.2854667533030104e-01
    x[1,2]    findWorstP[5,1]  -1.1166807285721374e-02
    x[1,2]    findWorstP[6,1]  -2.5242861348248452e-01
    x[1,2]    findWorstP[7,1]  -9.5388572478412634e-02
    x[1,3]    allocateEach[3]  1
    x[1,3]    findWorstP[1,2]  2.9925627645149355e-01
    x[1,3]    findWorstP[1,3]  2.9925627645149355e-01
    x[1,3]    findWorstP[1,4]  2.9925627645149355e-01
    x[1,3]    findWorstP[1,5]  2.9925627645149355e-01
    x[1,3]    findWorstP[1,6]  2.9925627645149355e-01
    x[1,3]    findWorstP[1,7]  2.9925627645149355e-01
    x[1,3]    findWorstP[2,1]  -2.7257200886262922e-01
    x[1,3]    findWorstP[3,1]  -9.9948905396376214e-02
    x[1,3]    findWorstP[4,1]  -1.8962529781243229e-01
    x[1,3]    findWorstP[5,1]  -4.8220755372475060e-01
    x[1,3]    findWorstP[6,1]  -0.249080070650574
    x[1,3]    findWorstP[7,1]  -3.6619511298916035e-01
    x[2,1]    allocateEach[1]  1
    x[2,1]    findWorstP[1,2]  -4.5815014175946092e-02
    x[2,1]    findWorstP[2,1]  1.3866322008862628e-01
    x[2,1]    findWorstP[2,3]  1.3866322008862628e-01
    x[2,1]    findWorstP[2,4]  1.3866322008862628e-01
    x[2,1]    findWorstP[2,5]  1.3866322008862628e-01
    x[2,1]    findWorstP[2,6]  1.3866322008862628e-01
    x[2,1]    findWorstP[2,7]  1.3866322008862628e-01
    x[2,1]    findWorstP[3,2]  -3.6009904492394762e-01
    x[2,1]    findWorstP[4,2]  -1.4035087719298242e-01
    x[2,1]    findWorstP[5,2]  -1.0323092957466872e-02
    x[2,1]    findWorstP[6,2]  -1.3051957609655579e-01
    x[2,1]    findWorstP[7,2]  -1.7097189050156161e-01
    x[2,2]    allocateEach[2]  1
    x[2,2]    findWorstP[1,2]  -2.4403172124748324e-01
    x[2,2]    findWorstP[2,1]  1.2716949778434267e-01
    x[2,2]    findWorstP[2,3]  1.2716949778434267e-01
    x[2,2]    findWorstP[2,4]  1.2716949778434267e-01
    x[2,2]    findWorstP[2,5]  1.2716949778434267e-01
    x[2,2]    findWorstP[2,6]  1.2716949778434267e-01
    x[2,2]    findWorstP[2,7]  1.2716949778434267e-01
    x[2,2]    findWorstP[3,2]  -1.4691663718901071e-01
    x[2,2]    findWorstP[4,2]  -1.2854667533030104e-01
    x[2,2]    findWorstP[5,2]  -1.1166807285721374e-02
    x[2,2]    findWorstP[6,2]  -2.5242861348248452e-01
    x[2,2]    findWorstP[7,2]  -9.5388572478412634e-02
    x[2,3]    allocateEach[3]  1
    x[2,3]    findWorstP[1,2]  -2.9925627645149355e-01
    x[2,3]    findWorstP[2,1]  2.7257200886262922e-01
    x[2,3]    findWorstP[2,3]  2.7257200886262922e-01
    x[2,3]    findWorstP[2,4]  2.7257200886262922e-01
    x[2,3]    findWorstP[2,5]  2.7257200886262922e-01
    x[2,3]    findWorstP[2,6]  2.7257200886262922e-01
    x[2,3]    findWorstP[2,7]  2.7257200886262922e-01
    x[2,3]    findWorstP[3,2]  -9.9948905396376214e-02
    x[2,3]    findWorstP[4,2]  -1.8962529781243229e-01
    x[2,3]    findWorstP[5,2]  -4.8220755372475060e-01
    x[2,3]    findWorstP[6,2]  -0.249080070650574
    x[2,3]    findWorstP[7,2]  -3.6619511298916035e-01
    x[3,1]    allocateEach[1]  1
    x[3,1]    findWorstP[1,3]  -4.5815014175946092e-02
    x[3,1]    findWorstP[2,3]  -1.3866322008862628e-01
    x[3,1]    findWorstP[3,1]  3.6009904492394762e-01
    x[3,1]    findWorstP[3,2]  3.6009904492394762e-01
    x[3,1]    findWorstP[3,4]  3.6009904492394762e-01
    x[3,1]    findWorstP[3,5]  3.6009904492394762e-01
    x[3,1]    findWorstP[3,6]  3.6009904492394762e-01
    x[3,1]    findWorstP[3,7]  3.6009904492394762e-01
    x[3,1]    findWorstP[4,3]  -1.4035087719298242e-01
    x[3,1]    findWorstP[5,3]  -1.0323092957466872e-02
    x[3,1]    findWorstP[6,3]  -1.3051957609655579e-01
    x[3,1]    findWorstP[7,3]  -1.7097189050156161e-01
    x[3,2]    allocateEach[2]  1
    x[3,2]    findWorstP[1,3]  -2.4403172124748324e-01
    x[3,2]    findWorstP[2,3]  -1.2716949778434267e-01
    x[3,2]    findWorstP[3,1]  1.4691663718901071e-01
    x[3,2]    findWorstP[3,2]  1.4691663718901071e-01
    x[3,2]    findWorstP[3,4]  1.4691663718901071e-01
    x[3,2]    findWorstP[3,5]  1.4691663718901071e-01
    x[3,2]    findWorstP[3,6]  1.4691663718901071e-01
    x[3,2]    findWorstP[3,7]  1.4691663718901071e-01
    x[3,2]    findWorstP[4,3]  -1.2854667533030104e-01
    x[3,2]    findWorstP[5,3]  -1.1166807285721374e-02
    x[3,2]    findWorstP[6,3]  -2.5242861348248452e-01
    x[3,2]    findWorstP[7,3]  -9.5388572478412634e-02
    x[3,3]    allocateEach[3]  1
    x[3,3]    findWorstP[1,3]  -2.9925627645149355e-01
    x[3,3]    findWorstP[2,3]  -2.7257200886262922e-01
    x[3,3]    findWorstP[3,1]  9.9948905396376214e-02
    x[3,3]    findWorstP[3,2]  9.9948905396376214e-02
    x[3,3]    findWorstP[3,4]  9.9948905396376214e-02
    x[3,3]    findWorstP[3,5]  9.9948905396376214e-02
    x[3,3]    findWorstP[3,6]  9.9948905396376214e-02
    x[3,3]    findWorstP[3,7]  9.9948905396376214e-02
    x[3,3]    findWorstP[4,3]  -1.8962529781243229e-01
    x[3,3]    findWorstP[5,3]  -4.8220755372475060e-01
    x[3,3]    findWorstP[6,3]  -0.249080070650574
    x[3,3]    findWorstP[7,3]  -3.6619511298916035e-01
    x[4,1]    allocateEach[1]  1
    x[4,1]    findWorstP[1,4]  -4.5815014175946092e-02
    x[4,1]    findWorstP[2,4]  -1.3866322008862628e-01
    x[4,1]    findWorstP[3,4]  -3.6009904492394762e-01
    x[4,1]    findWorstP[4,1]  1.4035087719298242e-01
    x[4,1]    findWorstP[4,2]  1.4035087719298242e-01
    x[4,1]    findWorstP[4,3]  1.4035087719298242e-01
    x[4,1]    findWorstP[4,5]  1.4035087719298242e-01
    x[4,1]    findWorstP[4,6]  1.4035087719298242e-01
    x[4,1]    findWorstP[4,7]  1.4035087719298242e-01
    x[4,1]    findWorstP[5,4]  -1.0323092957466872e-02
    x[4,1]    findWorstP[6,4]  -1.3051957609655579e-01
    x[4,1]    findWorstP[7,4]  -1.7097189050156161e-01
    x[4,2]    allocateEach[2]  1
    x[4,2]    findWorstP[1,4]  -2.4403172124748324e-01
    x[4,2]    findWorstP[2,4]  -1.2716949778434267e-01
    x[4,2]    findWorstP[3,4]  -1.4691663718901071e-01
    x[4,2]    findWorstP[4,1]  1.2854667533030104e-01
    x[4,2]    findWorstP[4,2]  1.2854667533030104e-01
    x[4,2]    findWorstP[4,3]  1.2854667533030104e-01
    x[4,2]    findWorstP[4,5]  1.2854667533030104e-01
    x[4,2]    findWorstP[4,6]  1.2854667533030104e-01
    x[4,2]    findWorstP[4,7]  1.2854667533030104e-01
    x[4,2]    findWorstP[5,4]  -1.1166807285721374e-02
    x[4,2]    findWorstP[6,4]  -2.5242861348248452e-01
    x[4,2]    findWorstP[7,4]  -9.5388572478412634e-02
    x[4,3]    allocateEach[3]  1
    x[4,3]    findWorstP[1,4]  -2.9925627645149355e-01
    x[4,3]    findWorstP[2,4]  -2.7257200886262922e-01
    x[4,3]    findWorstP[3,4]  -9.9948905396376214e-02
    x[4,3]    findWorstP[4,1]  1.8962529781243229e-01
    x[4,3]    findWorstP[4,2]  1.8962529781243229e-01
    x[4,3]    findWorstP[4,3]  1.8962529781243229e-01
    x[4,3]    findWorstP[4,5]  1.8962529781243229e-01
    x[4,3]    findWorstP[4,6]  1.8962529781243229e-01
    x[4,3]    findWorstP[4,7]  1.8962529781243229e-01
    x[4,3]    findWorstP[5,4]  -4.8220755372475060e-01
    x[4,3]    findWorstP[6,4]  -0.249080070650574
    x[4,3]    findWorstP[7,4]  -3.6619511298916035e-01
    x[5,1]    allocateEach[1]  1
    x[5,1]    findWorstP[1,5]  -4.5815014175946092e-02
    x[5,1]    findWorstP[2,5]  -1.3866322008862628e-01
    x[5,1]    findWorstP[3,5]  -3.6009904492394762e-01
    x[5,1]    findWorstP[4,5]  -1.4035087719298242e-01
    x[5,1]    findWorstP[5,1]  1.0323092957466872e-02
    x[5,1]    findWorstP[5,2]  1.0323092957466872e-02
    x[5,1]    findWorstP[5,3]  1.0323092957466872e-02
    x[5,1]    findWorstP[5,4]  1.0323092957466872e-02
    x[5,1]    findWorstP[5,6]  1.0323092957466872e-02
    x[5,1]    findWorstP[5,7]  1.0323092957466872e-02
    x[5,1]    findWorstP[6,5]  -1.3051957609655579e-01
    x[5,1]    findWorstP[7,5]  -1.7097189050156161e-01
    x[5,2]    allocateEach[2]  1
    x[5,2]    findWorstP[1,5]  -2.4403172124748324e-01
    x[5,2]    findWorstP[2,5]  -1.2716949778434267e-01
    x[5,2]    findWorstP[3,5]  -1.4691663718901071e-01
    x[5,2]    findWorstP[4,5]  -1.2854667533030104e-01
    x[5,2]    findWorstP[5,1]  1.1166807285721374e-02
    x[5,2]    findWorstP[5,2]  1.1166807285721374e-02
    x[5,2]    findWorstP[5,3]  1.1166807285721374e-02
    x[5,2]    findWorstP[5,4]  1.1166807285721374e-02
    x[5,2]    findWorstP[5,6]  1.1166807285721374e-02
    x[5,2]    findWorstP[5,7]  1.1166807285721374e-02
    x[5,2]    findWorstP[6,5]  -2.5242861348248452e-01
    x[5,2]    findWorstP[7,5]  -9.5388572478412634e-02
    x[5,3]    allocateEach[3]  1
    x[5,3]    findWorstP[1,5]  -2.9925627645149355e-01
    x[5,3]    findWorstP[2,5]  -2.7257200886262922e-01
    x[5,3]    findWorstP[3,5]  -9.9948905396376214e-02
    x[5,3]    findWorstP[4,5]  -1.8962529781243229e-01
    x[5,3]    findWorstP[5,1]  4.8220755372475060e-01
    x[5,3]    findWorstP[5,2]  4.8220755372475060e-01
    x[5,3]    findWorstP[5,3]  4.8220755372475060e-01
    x[5,3]    findWorstP[5,4]  4.8220755372475060e-01
    x[5,3]    findWorstP[5,6]  4.8220755372475060e-01
    x[5,3]    findWorstP[5,7]  4.8220755372475060e-01
    x[5,3]    findWorstP[6,5]  -0.249080070650574
    x[5,3]    findWorstP[7,5]  -3.6619511298916035e-01
    x[6,1]    allocateEach[1]  1
    x[6,1]    findWorstP[1,6]  -4.5815014175946092e-02
    x[6,1]    findWorstP[2,6]  -1.3866322008862628e-01
    x[6,1]    findWorstP[3,6]  -3.6009904492394762e-01
    x[6,1]    findWorstP[4,6]  -1.4035087719298242e-01
    x[6,1]    findWorstP[5,6]  -1.0323092957466872e-02
    x[6,1]    findWorstP[6,1]  1.3051957609655579e-01
    x[6,1]    findWorstP[6,2]  1.3051957609655579e-01
    x[6,1]    findWorstP[6,3]  1.3051957609655579e-01
    x[6,1]    findWorstP[6,4]  1.3051957609655579e-01
    x[6,1]    findWorstP[6,5]  1.3051957609655579e-01
    x[6,1]    findWorstP[6,7]  1.3051957609655579e-01
    x[6,1]    findWorstP[7,6]  -1.7097189050156161e-01
    x[6,2]    allocateEach[2]  1
    x[6,2]    findWorstP[1,6]  -2.4403172124748324e-01
    x[6,2]    findWorstP[2,6]  -1.2716949778434267e-01
    x[6,2]    findWorstP[3,6]  -1.4691663718901071e-01
    x[6,2]    findWorstP[4,6]  -1.2854667533030104e-01
    x[6,2]    findWorstP[5,6]  -1.1166807285721374e-02
    x[6,2]    findWorstP[6,1]  2.5242861348248452e-01
    x[6,2]    findWorstP[6,2]  2.5242861348248452e-01
    x[6,2]    findWorstP[6,3]  2.5242861348248452e-01
    x[6,2]    findWorstP[6,4]  2.5242861348248452e-01
    x[6,2]    findWorstP[6,5]  2.5242861348248452e-01
    x[6,2]    findWorstP[6,7]  2.5242861348248452e-01
    x[6,2]    findWorstP[7,6]  -9.5388572478412634e-02
    x[6,3]    allocateEach[3]  1
    x[6,3]    findWorstP[1,6]  -2.9925627645149355e-01
    x[6,3]    findWorstP[2,6]  -2.7257200886262922e-01
    x[6,3]    findWorstP[3,6]  -9.9948905396376214e-02
    x[6,3]    findWorstP[4,6]  -1.8962529781243229e-01
    x[6,3]    findWorstP[5,6]  -4.8220755372475060e-01
    x[6,3]    findWorstP[6,1]  0.249080070650574
    x[6,3]    findWorstP[6,2]  0.249080070650574
    x[6,3]    findWorstP[6,3]  0.249080070650574
    x[6,3]    findWorstP[6,4]  0.249080070650574
    x[6,3]    findWorstP[6,5]  0.249080070650574
    x[6,3]    findWorstP[6,7]  0.249080070650574
    x[6,3]    findWorstP[7,6]  -3.6619511298916035e-01
    x[7,1]    allocateEach[1]  1
    x[7,1]    findWorstP[1,7]  -4.5815014175946092e-02
    x[7,1]    findWorstP[2,7]  -1.3866322008862628e-01
    x[7,1]    findWorstP[3,7]  -3.6009904492394762e-01
    x[7,1]    findWorstP[4,7]  -1.4035087719298242e-01
    x[7,1]    findWorstP[5,7]  -1.0323092957466872e-02
    x[7,1]    findWorstP[6,7]  -1.3051957609655579e-01
    x[7,1]    findWorstP[7,1]  1.7097189050156161e-01
    x[7,1]    findWorstP[7,2]  1.7097189050156161e-01
    x[7,1]    findWorstP[7,3]  1.7097189050156161e-01
    x[7,1]    findWorstP[7,4]  1.7097189050156161e-01
    x[7,1]    findWorstP[7,5]  1.7097189050156161e-01
    x[7,1]    findWorstP[7,6]  1.7097189050156161e-01
    x[7,2]    allocateEach[2]  1
    x[7,2]    findWorstP[1,7]  -2.4403172124748324e-01
    x[7,2]    findWorstP[2,7]  -1.2716949778434267e-01
    x[7,2]    findWorstP[3,7]  -1.4691663718901071e-01
    x[7,2]    findWorstP[4,7]  -1.2854667533030104e-01
    x[7,2]    findWorstP[5,7]  -1.1166807285721374e-02
    x[7,2]    findWorstP[6,7]  -2.5242861348248452e-01
    x[7,2]    findWorstP[7,1]  9.5388572478412634e-02
    x[7,2]    findWorstP[7,2]  9.5388572478412634e-02
    x[7,2]    findWorstP[7,3]  9.5388572478412634e-02
    x[7,2]    findWorstP[7,4]  9.5388572478412634e-02
    x[7,2]    findWorstP[7,5]  9.5388572478412634e-02
    x[7,2]    findWorstP[7,6]  9.5388572478412634e-02
    x[7,3]    allocateEach[3]  1
    x[7,3]    findWorstP[1,7]  -2.9925627645149355e-01
    x[7,3]    findWorstP[2,7]  -2.7257200886262922e-01
    x[7,3]    findWorstP[3,7]  -9.9948905396376214e-02
    x[7,3]    findWorstP[4,7]  -1.8962529781243229e-01
    x[7,3]    findWorstP[5,7]  -4.8220755372475060e-01
    x[7,3]    findWorstP[6,7]  -0.249080070650574
    x[7,3]    findWorstP[7,1]  3.6619511298916035e-01
    x[7,3]    findWorstP[7,2]  3.6619511298916035e-01
    x[7,3]    findWorstP[7,3]  3.6619511298916035e-01
    x[7,3]    findWorstP[7,4]  3.6619511298916035e-01
    x[7,3]    findWorstP[7,5]  3.6619511298916035e-01
    x[7,3]    findWorstP[7,6]  3.6619511298916035e-01
    MARKER    'MARKER'                 'INTEND'
RHS
    RHS1      allocateEach[1]  1
    RHS1      allocateEach[2]  1
    RHS1      allocateEach[3]  1
    RHS1      allocateAllCash  1
BOUNDS
 UP BND1      z         1
 MI BND1      cashProportion[1]
 UP BND1      cashProportion[1]  1
 MI BND1      cashProportion[2]
 UP BND1      cashProportion[2]  1
 MI BND1      cashProportion[3]
 UP BND1      cashProportion[3]  1
 MI BND1      cashProportion[4]
 UP BND1      cashProportion[4]  1
 MI BND1      cashProportion[5]
 UP BND1      cashProportion[5]  1
 MI BND1      cashProportion[6]
 UP BND1      cashProportion[6]  1
 MI BND1      cashProportion[7]
 UP BND1      cashProportion[7]  1
 BV BND1      x[1,1]  
 BV BND1      x[1,2]  
 BV BND1      x[1,3]  
 BV BND1      x[2,1]  
 BV BND1      x[2,2]  
 BV BND1      x[2,3]  
 BV BND1      x[3,1]  
 BV BND1      x[3,2]  
 BV BND1      x[3,3]  
 BV BND1      x[4,1]  
 BV BND1      x[4,2]  
 BV BND1      x[4,3]  
 BV BND1      x[5,1]  
 BV BND1      x[5,2]  
 BV BND1      x[5,3]  
 BV BND1      x[6,1]  
 BV BND1      x[6,2]  
 BV BND1      x[6,3]  
 BV BND1      x[7,1]  
 BV BND1      x[7,2]  
 BV BND1      x[7,3]  
ENDATA
